100
2363
80 33 95 46 89 95 84 68 4 60 100 32 84 7 21 15 48 61 32 49 70 14 74 32 2 94 28 53 36 24 99 50 21 98 10 18 80 80 57 17 17 1 1 27 100 28 22 22 38 41 26 70 87 81 27 24 89 26 50 39 3 47 54 22 19 34 9 43 39 78 76 1 77 87 91 44 9 40 46 40 62 90 41 24 62 61 91 23 8 33 3 96 46 52 3 71 54 47 49 75
2 58 6 91 24 80 26 16 97 32 60 45 66 46 68 33 100 60 14 76 96 100 48 38 5 56 12 27 44 66 79 47 19 44 36 90 70 12 40 88 41 40 23 11 81 20 93 89 40 62 21 93 7 11 77 69 52 5 31 95 77 45 33 59 84 54 19 8 82 5 64 43 27 17 94 73 17 81 53 14 22 56 48 20 8 54 38 19 59 80 22 67 59 63 89 94 41 62 36 38
